
******************************************************************************
This program contains Ipopt, a library for large-scale nonlinear optimization.
 Ipopt is released as open source code under the Eclipse Public License (EPL).
         For more information visit http://projects.coin-or.org/Ipopt
******************************************************************************

This is Ipopt version trunk, running with linear solver mumps.
NOTE: Other linear solvers might be more efficient (see Ipopt documentation).

Number of nonzeros in equality constraint Jacobian...:     6800
Number of nonzeros in inequality constraint Jacobian.:        0
Number of nonzeros in Lagrangian Hessian.............:        0

Total number of variables............................:      100
                     variables with only lower bounds:        0
                variables with lower and upper bounds:      100
                     variables with only upper bounds:        0
Total number of equality constraints.................:       68
Total number of inequality constraints...............:        0
        inequality constraints with only lower bounds:        0
   inequality constraints with lower and upper bounds:        0
        inequality constraints with only upper bounds:        0

iter    objective    inf_pr   inf_du lg(mu)  ||d||  lg(rg) alpha_du alpha_pr  ls
   0  0.0000000e+00 3.95e+00 0.00e+00   0.0 0.00e+00    -  0.00e+00 0.00e+00   0
   1  1.9317431e+00 3.85e-09 6.93e-01   0.5 3.95e+00    -  1.00e-01 1.00e+00f  1
   2  6.8465041e-01 2.13e-10 2.54e-01  -5.3 7.04e-01    -  8.45e-01 1.00e+00f  1
   3  3.5806025e-01 2.94e-10 7.29e-02  -1.4 2.60e-01    -  9.98e-01 1.00e+00f  1
   4  1.5129878e-01 4.45e-10 1.42e-01  -2.7 4.60e-01    -  9.98e-01 1.00e+00f  1
   5  1.1556474e-01 3.62e-10 1.39e-01  -3.5 5.31e-01    -  1.00e+00 5.00e-01f  2
   6  7.8721149e-02 7.12e-11 5.09e-02  -4.8 2.01e-01    -  1.00e+00 1.00e+00f  1
   7  6.3382351e-02 6.32e-11 2.34e-02  -6.3 7.69e-02    -  1.00e+00 1.00e+00f  1
   8  5.0570416e-02 9.85e-11 1.97e-02  -7.9 1.04e-01    -  1.00e+00 1.00e+00f  1
   9  4.6212265e-02 3.60e-10 1.14e-01  -8.5 1.84e+00    -  1.00e+00 2.50e-01f  3
iter    objective    inf_pr   inf_du lg(mu)  ||d||  lg(rg) alpha_du alpha_pr  ls
  10  4.2841376e-02 2.65e-10 8.17e-02  -9.3 6.75e-01    -  1.00e+00 2.50e-01f  3
  11  2.2425707e-02 9.31e-11 3.64e-02 -10.6 1.11e-01    -  1.00e+00 1.00e+00f  1
  12  1.4353590e-02 3.46e-11 1.44e-02 -11.0 4.72e-02    -  1.00e+00 1.00e+00f  1
  13  1.2931975e-02 3.78e-11 6.16e-03 -11.0 2.64e-02    -  1.00e+00 1.00e+00f  1
  14  9.5791702e-03 2.51e-10 1.81e-02 -11.0 2.88e-01    -  1.00e+00 5.00e-01f  2
  15  9.5273598e-03 4.34e-10 6.04e-02 -11.0 1.15e+00    -  1.00e+00 2.50e-01f  3
  16  7.9994352e-03 4.06e-10 4.82e-02 -11.0 7.78e-01    -  1.00e+00 6.25e-02f  5
  17  5.2715622e-03 2.02e-10 3.45e-02 -11.0 1.07e-01    -  1.00e+00 5.00e-01f  2
  18  3.2543437e-03 1.00e-10 5.45e-03 -11.0 1.00e-01    -  1.00e+00 5.00e-01f  2
  19  3.2382793e-03 5.12e-11 5.29e-03 -11.0 2.12e-02    -  1.00e+00 5.00e-01f  2
iter    objective    inf_pr   inf_du lg(mu)  ||d||  lg(rg) alpha_du alpha_pr  ls
  20  3.0693810e-03 1.21e-12 3.01e-03 -11.0 1.02e-02    -  1.00e+00 1.00e+00f  1
  21  3.0457398e-03 5.24e-13 7.18e-04 -11.0 3.61e-03    -  1.00e+00 1.00e+00f  1
  22  3.0358722e-03 5.29e-13 6.67e-04 -11.0 1.83e-03    -  1.00e+00 1.00e+00f  1
  23  3.0223130e-03 2.90e-12 1.86e-03 -11.0 2.85e-02    -  1.00e+00 2.50e-01f  3
  24  3.0143999e-03 5.06e-12 8.27e-04 -11.0 2.81e-02    -  1.00e+00 2.50e-01f  3
  25  3.0126039e-03 5.43e-12 6.83e-04 -11.0 2.04e-02    -  1.00e+00 2.50e-01f  3
  26  3.0101406e-03 1.95e-12 4.74e-04 -11.0 2.95e-03    -  1.00e+00 5.00e-01f  2
  27  3.0089518e-03 6.01e-13 3.67e-04 -11.0 2.52e-03    -  1.00e+00 1.00e+00f  1
  28  3.0084096e-03 2.16e-13 3.96e-04 -11.0 6.98e-04    -  1.00e+00 1.00e+00f  1
  29  3.0078969e-03 7.67e-14 8.43e-05 -11.0 4.94e-04    -  1.00e+00 1.00e+00h  1
iter    objective    inf_pr   inf_du lg(mu)  ||d||  lg(rg) alpha_du alpha_pr  ls
  30  3.0078844e-03 1.78e-14 5.06e-05 -11.0 1.43e-04    -  1.00e+00 1.00e+00h  1
  31  3.0078747e-03 4.69e-15 1.07e-05 -11.0 4.96e-05    -  1.00e+00 1.00e+00h  1
  32  3.0078715e-03 1.37e-14 9.82e-06 -11.0 2.81e-05    -  1.00e+00 1.00e+00h  1
  33  3.0078677e-03 1.56e-13 6.63e-05 -11.0 3.38e-04    -  1.00e+00 1.00e+00h  1
  34  3.0080288e-03 1.39e-16 3.22e-04 -11.0 5.44e-04    -  1.00e+00 1.00e+00H  1
  35  3.0078591e-03 1.32e-13 4.69e-05 -11.0 3.83e-04    -  1.00e+00 1.00e+00f  1
  36  3.0078659e-03 3.86e-14 7.11e-05 -11.0 1.33e-04    -  1.00e+00 1.00e+00h  1
  37  3.0078467e-03 3.49e-14 1.29e-05 -11.0 8.73e-05    -  1.00e+00 1.00e+00h  1
  38  3.0078460e-03 1.29e-14 9.35e-06 -11.0 3.16e-05    -  1.00e+00 1.00e+00h  1
  39  3.0078451e-03 7.56e-15 5.85e-06 -11.0 1.65e-05    -  1.00e+00 1.00e+00h  1
iter    objective    inf_pr   inf_du lg(mu)  ||d||  lg(rg) alpha_du alpha_pr  ls
  40  3.0078441e-03 2.82e-14 1.28e-05 -11.0 6.99e-05    -  1.00e+00 1.00e+00h  1
  41  3.0078466e-03 9.02e-17 4.48e-05 -11.0 1.46e-04    -  1.00e+00 1.00e+00H  1
  42  3.0078448e-03 3.00e-14 3.17e-05 -11.0 1.10e-04    -  1.00e+00 5.00e-01h  2
  43  3.0078464e-03 9.40e-15 4.69e-05 -11.0 9.86e-05    -  1.00e+00 1.00e+00h  1
  44  3.0078420e-03 1.36e-14 8.33e-06 -11.0 8.93e-05    -  1.00e+00 1.00e+00h  1
  45  3.0078418e-03 7.31e-15 6.42e-06 -11.0 1.81e-05    -  1.00e+00 1.00e+00h  1
  46  3.0078417e-03 2.64e-15 2.92e-06 -11.0 8.60e-06    -  1.00e+00 1.00e+00h  1
  47  3.0078416e-03 1.48e-15 1.47e-06 -11.0 3.50e-06    -  1.00e+00 1.00e+00h  1
  48  3.0078416e-03 2.94e-15 6.26e-07 -11.0 5.37e-06    -  1.00e+00 1.00e+00h  1
  49  3.0078420e-03 1.25e-16 1.23e-05 -11.0 6.34e-05    -  1.00e+00 1.00e+00H  1
iter    objective    inf_pr   inf_du lg(mu)  ||d||  lg(rg) alpha_du alpha_pr  ls
  50  3.0078419e-03 3.41e-15 7.52e-06 -11.0 4.07e-05    -  1.00e+00 2.50e-01h  3
  51  3.0078416e-03 2.36e-14 2.54e-06 -11.0 5.05e-05    -  1.00e+00 1.00e+00h  1
  52  3.0078435e-03 1.82e-15 2.33e-05 -11.0 2.90e-05    -  1.00e+00 1.00e+00h  1
  53  3.0078416e-03 5.10e-15 1.48e-07 -11.0 2.74e-05    -  1.00e+00 1.00e+00h  1
  54  3.0078416e-03 8.33e-17 6.67e-08 -11.0 2.62e-07    -  1.00e+00 1.00e+00h  1

Number of Iterations....: 54

                                   (scaled)                 (unscaled)
Objective...............:   3.0078415562802140e-03    3.0078415562802140e-03
Dual infeasibility......:   6.6662863393832865e-08    6.6662863393832865e-08
Constraint violation....:   8.3266726846886741e-17    8.3266726846886741e-17
Complementarity.........:   1.0000000000000003e-11    1.0000000000000003e-11
Overall NLP error.......:   6.6662863393832865e-08    6.6662863393832865e-08


Number of objective function evaluations             = 115
Number of objective gradient evaluations             = 55
Number of equality constraint evaluations            = 115
Number of inequality constraint evaluations          = 0
Number of equality constraint Jacobian evaluations   = 55
Number of inequality constraint Jacobian evaluations = 0
Number of Lagrangian Hessian evaluations             = 0
Total CPU secs in IPOPT (w/o function evaluations)   =      0.150
Total CPU secs in NLP function evaluations           =      0.003

EXIT: Optimal Solution Found.
